NAME: concorde91
TYPE: TSP
DIMENSION: 15 
EDGE_WEIGHT_TYPE: EUC_2D
NODE_COORD_SECTION
1 6 61
2 30 92
3 49 64
4 65 27
5 51 35
6 80 67
7 57 91
8 35 73
9 66 92
10 24 38
11 26 86
12 52 5
13 74 25
14 78 37
15 11 36
